50
24156

483 137
879 972
884 555
788 886
32 806
872 692
976 711
606 95
784 572
628 931
311 715
703 878
567 633
993 188
544 174
762 785
525 821
769 336
38 573
150 788
828 907
28 416
57 912
483 16
927 95
903 404
822 886
927 316
440 151
116 436
193 651
356 746
530 742
205 295
710 712
671 713
650 503
204 877
234 660
184 657
256 72
363 338
845 561
912 389
176 879
358 940
439 307
452 665
330 8
679 28
